assets/logs/18_8x8_clingo/18_8x8_clingo.solution.log

---------------------------------
|  0| 11| 37|  7| 17| 27| 44|  2|
---------------------------------
| 39| 24| 15| 29| 42|  4| 19| 25|
---------------------------------
| 13| 35|  9| 26|  5| 23|  8| 46|
---------------------------------
| 22| 41| 31| 40|  6| 48|  3| 21|
---------------------------------
| 33| 38| 20| 55| 28| 10|  1| 50|
---------------------------------
| 43|  1| 30| 36| 18| 53|  1| 12|
---------------------------------
| 32|  1| 56| 47| 57| 14| 52| 51|
---------------------------------
| 58| 45| 34| 16| 54| 49|  1|  0|
---------------------------------

| n = 8 | k = 5 | coverage = 62, 96.875%
 Time 300.002
 Name 18_8x8_clingo

