assets/logs/18_8x8_clingo/18_8x8_clingo.log
clingo version 5.4.0
Reading from ...ets/logs/18_8x8_clingo/knights_tour.lp ...
Solving...
Answer: 1
occ(1,5,7) occ(1,8,7) occ(1,6,7) occ(1,6,2) occ(1,7,2) occ(2,1,8) occ(3,4,7) coverage(6)
Optimization: -6
Answer: 2
occ(1,5,7) occ(1,8,7) occ(1,6,7) occ(1,6,2) occ(1,7,2) occ(2,1,8) occ(3,4,7) coverage(50) occ(6,1,6) occ(15,1,2) occ(21,1,5) occ(28,1,1) occ(32,1,3) occ(36,1,7) occ(42,1,4) occ(17,2,4) occ(23,2,7) occ(26,2,3) occ(34,2,5) occ(40,2,6) occ(44,2,2) occ(4,3,7) occ(8,3,5) occ(13,3,1) occ(19,3,6) occ(27,3,4) occ(30,3,2) occ(33,3,3) occ(38,3,8) occ(9,4,4) occ(24,4,2) occ(25,4,6) occ(31,4,1) occ(35,4,5) occ(46,4,3) occ(5,5,5) occ(10,5,4) occ(11,5,2) occ(29,5,3) occ(48,5,1) occ(51,5,6) occ(7,6,3) occ(12,6,6) occ(22,6,1) occ(37,6,4) occ(43,6,5) occ(14,7,8) occ(18,7,4) occ(39,7,6) occ(45,7,3) occ(49,7,7) occ(53,7,5) occ(57,7,1) occ(16,8,6) occ(20,8,2) occ(41,8,4) occ(47,8,5) occ(55,8,3)
Optimization: -50
Answer: 3
occ(1,5,7) occ(1,8,7) occ(1,6,7) occ(1,6,2) occ(1,7,2) occ(2,1,8) occ(3,4,7) coverage(51) occ(7,1,6) occ(16,1,7) occ(19,1,4) occ(20,1,3) occ(24,1,1) occ(41,1,5) occ(5,2,8) occ(9,2,4) occ(17,2,2) occ(18,2,5) occ(21,2,6) occ(26,2,3) occ(43,2,7) occ(4,3,7) occ(13,3,3) occ(14,3,6) occ(22,3,2) occ(23,3,8) occ(28,3,1) occ(39,3,4) occ(45,3,5) occ(11,4,5) occ(15,4,1) occ(25,4,6) occ(47,4,3) occ(48,4,2) occ(6,5,8) occ(12,5,5) occ(30,5,2) occ(37,5,3) occ(38,5,6) occ(49,5,1) occ(50,5,4) occ(8,6,6) occ(27,6,5) occ(35,6,1) occ(36,6,4) occ(40,6,8) occ(46,6,3) occ(10,7,4) occ(29,7,7) occ(32,7,1) occ(33,7,3) occ(42,7,6) occ(52,7,5) occ(31,8,5) occ(34,8,3) occ(44,8,4)
Optimization: -51
Answer: 4
occ(1,5,7) occ(1,8,7) occ(1,6,7) occ(1,6,2) occ(1,7,2) occ(2,1,8) occ(3,4,7) coverage(53) occ(11,1,2) occ(19,1,4) occ(20,1,3) occ(24,1,1) occ(41,1,5) occ(47,1,6) occ(9,2,4) occ(17,2,2) occ(18,2,5) occ(21,2,6) occ(26,2,3) occ(43,2,7) occ(49,2,8) occ(4,3,7) occ(13,3,3) occ(22,3,2) occ(23,3,8) occ(39,3,4) occ(45,3,5) occ(51,3,6) occ(7,4,3) occ(15,4,1) occ(16,4,4) occ(25,4,6) occ(28,4,2) occ(42,4,5) occ(5,5,5) occ(6,5,6) occ(14,5,2) occ(27,5,8) occ(37,5,3) occ(52,5,1) occ(30,6,1) occ(35,6,5) occ(40,6,6) occ(44,6,4) occ(50,6,3) occ(8,7,5) occ(12,7,1) occ(29,7,7) occ(33,7,3) occ(34,7,4) occ(38,7,8) occ(46,7,6) occ(10,8,3) occ(31,8,5) occ(32,8,2) occ(36,8,6) occ(48,8,4)
Optimization: -53
Answer: 5
occ(1,5,7) occ(1,8,7) occ(1,6,7) occ(1,6,2) occ(1,7,2) occ(2,1,8) occ(3,4,7) coverage(54) occ(6,1,4) occ(7,1,6) occ(12,1,5) occ(43,1,2) occ(48,1,3) occ(49,1,1) occ(52,1,7) occ(4,2,6) occ(5,2,8) occ(8,2,2) occ(14,2,7) occ(41,2,4) occ(46,2,1) occ(47,2,3) occ(50,2,5) occ(9,3,7) occ(10,3,4) occ(20,3,3) occ(25,3,5) occ(39,3,6) occ(45,3,1) occ(51,3,2) occ(11,4,5) occ(16,4,6) occ(22,4,1) occ(27,4,3) occ(37,4,4) occ(44,4,2) occ(15,5,2) occ(18,5,4) occ(23,5,6) occ(24,5,3) occ(29,5,5) occ(30,5,8) occ(53,5,1) occ(13,6,4) occ(28,6,6) occ(35,6,5) occ(38,6,1) occ(42,6,3) occ(17,7,1) occ(21,7,5) occ(26,7,4) occ(31,7,6) occ(32,7,7) occ(36,7,3) occ(19,8,3) occ(33,8,4) occ(34,8,5) occ(40,8,2)
Optimization: -54
Answer: 6
occ(1,5,7) occ(1,8,7) occ(1,6,7) occ(1,6,2) occ(1,7,2) occ(2,1,8) occ(3,4,7) coverage(55) occ(10,1,2) occ(29,1,7) occ(36,1,5) occ(42,1,4) occ(48,1,3) occ(53,1,1) occ(4,2,6) occ(8,2,4) occ(23,2,5) occ(34,2,3) occ(38,2,7) occ(44,2,2) occ(50,2,1) occ(12,3,3) occ(21,3,7) occ(27,3,6) occ(31,3,8) occ(32,3,1) occ(40,3,5) occ(46,3,4) occ(51,3,2) occ(6,4,5) occ(14,4,1) occ(25,4,4) occ(33,4,6) occ(47,4,3) occ(52,4,2) occ(9,5,5) occ(16,5,3) occ(19,5,8) occ(30,5,2) occ(35,5,4) occ(43,5,6) occ(49,5,1) occ(5,6,8) occ(17,6,6) occ(18,6,5) occ(22,6,3) occ(45,6,4) occ(54,6,1) occ(7,7,6) occ(11,7,4) occ(15,7,8) occ(24,7,5) occ(28,7,1) occ(37,7,3) occ(41,7,7) occ(13,8,6) occ(20,8,4) occ(26,8,3) occ(39,8,5)
Optimization: -55
Answer: 7
occ(1,5,7) occ(1,8,7) occ(1,6,7) occ(1,6,2) occ(1,7,2) occ(2,1,8) occ(3,4,7) coverage(56) occ(6,1,6) occ(10,1,2) occ(13,1,5) occ(32,1,3) occ(36,1,7) occ(43,1,4) occ(7,2,7) occ(8,2,4) occ(15,2,3) occ(16,2,2) occ(34,2,5) occ(39,2,1) occ(45,2,6) occ(4,3,7) occ(5,3,5) occ(11,3,6) occ(12,3,1) occ(30,3,2) occ(35,3,4) occ(38,3,8) occ(41,3,3) occ(9,4,8) occ(14,4,3) occ(17,4,4) occ(18,4,1) occ(37,4,2) occ(40,4,6) occ(47,4,5) occ(20,5,3) occ(23,5,4) occ(27,5,6) occ(28,5,1) occ(33,5,5) occ(42,5,8) occ(54,5,2) occ(19,6,5) occ(22,6,1) occ(26,6,3) occ(29,6,8) occ(48,6,4) occ(49,6,6) occ(21,7,3) occ(25,7,5) occ(31,7,6) occ(44,7,7) occ(51,7,8) occ(52,7,1) occ(55,7,4) occ(24,8,2) occ(46,8,5) occ(50,8,3) occ(53,8,6)
Optimization: -56
Answer: 8
occ(1,5,7) occ(1,8,7) occ(1,6,7) occ(1,6,2) occ(1,7,2) occ(2,1,8) occ(3,4,7) coverage(58) occ(28,1,3) occ(34,1,2) occ(35,1,4) occ(41,1,7) occ(47,1,6) occ(52,1,5) occ(23,2,5) occ(30,2,1) occ(33,2,2) occ(37,2,6) occ(45,2,8) occ(46,2,3) occ(49,2,4) occ(54,2,7) occ(4,3,7) occ(26,3,2) occ(32,3,3) occ(36,3,1) occ(39,3,8) occ(43,3,6) occ(44,3,5) occ(50,3,4) occ(21,4,6) occ(22,4,3) occ(25,4,4) occ(31,4,1) occ(48,4,2) occ(51,4,5) occ(56,4,8) occ(6,5,8) occ(19,5,4) occ(20,5,5) occ(24,5,1) occ(29,5,3) occ(38,5,2) occ(42,5,6) occ(5,6,8) occ(11,6,3) occ(14,6,1) occ(27,6,5) occ(40,6,4) occ(53,6,6) occ(7,7,6) occ(8,7,7) occ(12,7,3) occ(13,7,1) occ(17,7,5) occ(18,7,4) occ(55,7,8) occ(9,8,4) occ(10,8,5) occ(15,8,3) occ(16,8,2) occ(57,8,6)
Optimization: -58
Answer: 9
occ(1,5,7) occ(1,8,7) occ(1,6,7) occ(1,6,2) occ(1,7,2) occ(2,1,8) occ(3,4,7) coverage(59) occ(7,1,4) occ(11,1,2) occ(17,1,5) occ(27,1,6) occ(37,1,3) occ(44,1,7) occ(4,2,6) occ(15,2,3) occ(19,2,7) occ(24,2,2) occ(25,2,8) occ(29,2,4) occ(39,2,1) occ(42,2,5) occ(5,3,5) occ(8,3,7) occ(9,3,3) occ(13,3,1) occ(23,3,6) occ(26,3,4) occ(35,3,2) occ(46,3,8) occ(6,4,5) occ(21,4,8) occ(22,4,1) occ(31,4,3) occ(40,4,4) occ(41,4,2) occ(48,4,6) occ(10,5,6) occ(20,5,3) occ(28,5,5) occ(33,5,1) occ(38,5,2) occ(50,5,8) occ(55,5,4) occ(12,6,8) occ(18,6,5) occ(30,6,3) occ(36,6,4) occ(43,6,1) occ(53,6,6) occ(14,7,6) occ(32,7,1) occ(47,7,4) occ(51,7,8) occ(52,7,7) occ(56,7,3) occ(57,7,5) occ(16,8,4) occ(34,8,3) occ(45,8,2) occ(49,8,6) occ(54,8,5) occ(58,8,1)
Optimization: -59
*** Info : (clingo): INTERRUPTED by signal!
SATISFIABLE

TIME LIMIT   : 1
Models       : 9+
  Optimum    : unknown
Optimization : -59
Calls        : 1
Time         : 300.000s (Solving: 299.70s 1st Model: 0.00s Unsat: 0.00s)
CPU Time     : 300.002s
